TCS_Benchmarks/redos_fix/regexlib2_output_distinct_2903_2902_193_0.txt
(ame|[parceufgizlo])+(ame|et)+
(ame|[parceufgizlo])+
e.*